param n = 3;
param m = 3;

param	c:	1	2	3	=
		1	1	1	4	
		2	10	10	4
		3	1	2	8;

param	a:	1	2	3	=
		1	251	144	116	
		2	143	137	220
		3	145	73	178;

param	mm_:	1	2	3:=
			1	0	0	0	
			2	0	0	0
			3	0	0	0;

param AA:=
		1	6
		2	8
		3	30;

param MM:=
		1	112
		2	109
		3	131;

param	y:	1	2	3:=
		1	0	1	0	
		2	1	0	1
		3	0	0	0;
		
		
			
		
		
		
